Total weight: 1464.4
Route 1: 0 31 63 62 88 90 10 70 0 
Route 2: 0 83 5 84 60 0 
Route 3: 0 12 29 24 0 
Route 4: 0 53 40 58 0 
Route 5: 0 27 52 6 89 0 
Route 6: 0 18 82 7 50 0 
Route 7: 0 95 59 99 87 57 97 13 0 
Route 8: 0 69 30 51 81 9 35 1 0 
Route 9: 0 42 14 16 85 61 96 94 0 
Route 10: 0 2 15 43 41 22 74 26 0 
Route 11: 0 28 76 79 78 34 3 68 80 77 0 
Route 12: 0 64 11 19 8 45 17 0 
Route 13: 0 92 98 44 38 86 37 100 91 93 0 
Route 14: 0 72 73 21 56 4 54 0 
Route 15: 0 47 36 49 46 48 0 
Route 16: 0 33 65 71 66 20 32 0 
Route 17: 0 39 75 23 67 55 25 0 
